\ENCODING=ISO-8859-1
\Problem name: IVM_master_problem

Minimize
 obj: 100 z + 10000 r_super
Subject To
 c1_1:     9.04 r_super  = 9.04
 c1_2:     19.23 r_super  = 19.23
 c1_3:     21.54 r_super  = 21.54
 c1_4:     13.27 r_super  = 13.27
 c1_5:     4.54 r_super  = 4.54
 c1_6:     6.35 r_super  = 6.35
 c1_7:     5.73 r_super  = 5.73
 c1_8:     6.38 r_super  = 6.38
 c1_9:     4.88 r_super  = 4.88
 c1_10:    15.08 r_super  = 15.08
 c1_11:    11.38 r_super  = 11.38
 c1_12:    5.62 r_super  = 5.62
 c1_13:    11.31 r_super  = 11.31
 c2_1_1:   - 1000 w_1_1 + r_super <= 0
 c2_1_2:   - 1000 w_1_2 <= 0
 c2_1_3:   - 1000 w_1_3 <= 0
 c2_1_4:   - 1000 w_1_4 <= 0
 c2_1_5:   - 1000 w_1_5 <= 0
 c2_1_6:   - 1000 w_1_6 <= 0
 c2_1_7:   - 1000 w_1_7 <= 0
 c2_1_8:   - 1000 w_1_8 <= 0
 c2_1_9:   - 1000 w_1_9 <= 0
 c2_1_10:  - 1000 w_1_10 <= 0
 c2_2_1:   - 1000 w_2_1 + r_super <= 0
 c2_2_2:   - 1000 w_2_2 <= 0
 c2_2_3:   - 1000 w_2_3 <= 0
 c2_2_4:   - 1000 w_2_4 <= 0
 c2_2_5:   - 1000 w_2_5 <= 0
 c2_2_6:   - 1000 w_2_6 <= 0
 c2_2_7:   - 1000 w_2_7 <= 0
 c2_2_8:   - 1000 w_2_8 <= 0
 c2_2_9:   - 1000 w_2_9 <= 0
 c2_2_10:  - 1000 w_2_10 <= 0
 c2_3_1:   - 1000 w_3_1 + r_super <= 0
 c2_3_2:   - 1000 w_3_2 <= 0
 c2_3_3:   - 1000 w_3_3 <= 0
 c2_3_4:   - 1000 w_3_4 <= 0
 c2_3_5:   - 1000 w_3_5 <= 0
 c2_3_6:   - 1000 w_3_6 <= 0
 c2_3_7:   - 1000 w_3_7 <= 0
 c2_3_8:   - 1000 w_3_8 <= 0
 c2_3_9:   - 1000 w_3_9 <= 0
 c2_3_10:  - 1000 w_3_10 <= 0
 c2_4_1:   - 1000 w_4_1 + r_super <= 0
 c2_4_2:   - 1000 w_4_2 <= 0
 c2_4_3:   - 1000 w_4_3 <= 0
 c2_4_4:   - 1000 w_4_4 <= 0
 c2_4_5:   - 1000 w_4_5 <= 0
 c2_4_6:   - 1000 w_4_6 <= 0
 c2_4_7:   - 1000 w_4_7 <= 0
 c2_4_8:   - 1000 w_4_8 <= 0
 c2_4_9:   - 1000 w_4_9 <= 0
 c2_4_10:  - 1000 w_4_10 <= 0
 c2_5_1:   - 1000 w_5_1 + r_super <= 0
 c2_5_2:   - 1000 w_5_2 <= 0
 c2_5_3:   - 1000 w_5_3 <= 0
 c2_5_4:   - 1000 w_5_4 <= 0
 c2_5_5:   - 1000 w_5_5 <= 0
 c2_5_6:   - 1000 w_5_6 <= 0
 c2_5_7:   - 1000 w_5_7 <= 0
 c2_5_8:   - 1000 w_5_8 <= 0
 c2_5_9:   - 1000 w_5_9 <= 0
 c2_5_10:  - 1000 w_5_10 <= 0
 c2_6_1:   - 1000 w_6_1 + r_super <= 0
 c2_6_2:   - 1000 w_6_2 <= 0
 c2_6_3:   - 1000 w_6_3 <= 0
 c2_6_4:   - 1000 w_6_4 <= 0
 c2_6_5:   - 1000 w_6_5 <= 0
 c2_6_6:   - 1000 w_6_6 <= 0
 c2_6_7:   - 1000 w_6_7 <= 0
 c2_6_8:   - 1000 w_6_8 <= 0
 c2_6_9:   - 1000 w_6_9 <= 0
 c2_6_10:  - 1000 w_6_10 <= 0
 c2_7_1:   - 1000 w_7_1 + r_super <= 0
 c2_7_2:   - 1000 w_7_2 <= 0
 c2_7_3:   - 1000 w_7_3 <= 0
 c2_7_4:   - 1000 w_7_4 <= 0
 c2_7_5:   - 1000 w_7_5 <= 0
 c2_7_6:   - 1000 w_7_6 <= 0
 c2_7_7:   - 1000 w_7_7 <= 0
 c2_7_8:   - 1000 w_7_8 <= 0
 c2_7_9:   - 1000 w_7_9 <= 0
 c2_7_10:  - 1000 w_7_10 <= 0
 c2_8_1:   - 1000 w_8_1 + r_super <= 0
 c2_8_2:   - 1000 w_8_2 <= 0
 c2_8_3:   - 1000 w_8_3 <= 0
 c2_8_4:   - 1000 w_8_4 <= 0
 c2_8_5:   - 1000 w_8_5 <= 0
 c2_8_6:   - 1000 w_8_6 <= 0
 c2_8_7:   - 1000 w_8_7 <= 0
 c2_8_8:   - 1000 w_8_8 <= 0
 c2_8_9:   - 1000 w_8_9 <= 0
 c2_8_10:  - 1000 w_8_10 <= 0
 c2_9_1:   - 1000 w_9_1 + r_super <= 0
 c2_9_2:   - 1000 w_9_2 <= 0
 c2_9_3:   - 1000 w_9_3 <= 0
 c2_9_4:   - 1000 w_9_4 <= 0
 c2_9_5:   - 1000 w_9_5 <= 0
 c2_9_6:   - 1000 w_9_6 <= 0
 c2_9_7:   - 1000 w_9_7 <= 0
 c2_9_8:   - 1000 w_9_8 <= 0
 c2_9_9:   - 1000 w_9_9 <= 0
 c2_9_10:  - 1000 w_9_10 <= 0
 c2_10_1:  - 1000 w_10_1 + r_super <= 0
 c2_10_2:  - 1000 w_10_2 <= 0
 c2_10_3:  - 1000 w_10_3 <= 0
 c2_10_4:  - 1000 w_10_4 <= 0
 c2_10_5:  - 1000 w_10_5 <= 0
 c2_10_6:  - 1000 w_10_6 <= 0
 c2_10_7:  - 1000 w_10_7 <= 0
 c2_10_8:  - 1000 w_10_8 <= 0
 c2_10_9:  - 1000 w_10_9 <= 0
 c2_10_10: - 1000 w_10_10 <= 0
 c2_11_1:  - 1000 w_11_1 + r_super <= 0
 c2_11_2:  - 1000 w_11_2 <= 0
 c2_11_3:  - 1000 w_11_3 <= 0
 c2_11_4:  - 1000 w_11_4 <= 0
 c2_11_5:  - 1000 w_11_5 <= 0
 c2_11_6:  - 1000 w_11_6 <= 0
 c2_11_7:  - 1000 w_11_7 <= 0
 c2_11_8:  - 1000 w_11_8 <= 0
 c2_11_9:  - 1000 w_11_9 <= 0
 c2_11_10: - 1000 w_11_10 <= 0
 c2_12_1:  - 1000 w_12_1 + r_super <= 0
 c2_12_2:  - 1000 w_12_2 <= 0
 c2_12_3:  - 1000 w_12_3 <= 0
 c2_12_4:  - 1000 w_12_4 <= 0
 c2_12_5:  - 1000 w_12_5 <= 0
 c2_12_6:  - 1000 w_12_6 <= 0
 c2_12_7:  - 1000 w_12_7 <= 0
 c2_12_8:  - 1000 w_12_8 <= 0
 c2_12_9:  - 1000 w_12_9 <= 0
 c2_12_10: - 1000 w_12_10 <= 0
 c2_13_1:  - 1000 w_13_1 + r_super <= 0
 c2_13_2:  - 1000 w_13_2 <= 0
 c2_13_3:  - 1000 w_13_3 <= 0
 c2_13_4:  - 1000 w_13_4 <= 0
 c2_13_5:  - 1000 w_13_5 <= 0
 c2_13_6:  - 1000 w_13_6 <= 0
 c2_13_7:  - 1000 w_13_7 <= 0
 c2_13_8:  - 1000 w_13_8 <= 0
 c2_13_9:  - 1000 w_13_9 <= 0
 c2_13_10: - 1000 w_13_10 <= 0
 c3_1:     w_1_1 + w_1_2 + w_1_3 + w_1_4 + w_1_5 + w_1_6 + w_1_7 + w_1_8
           + w_1_9 + w_1_10 <= 3
 c3_2:     w_2_1 + w_2_2 + w_2_3 + w_2_4 + w_2_5 + w_2_6 + w_2_7 + w_2_8
           + w_2_9 + w_2_10 <= 3
 c3_3:     w_3_1 + w_3_2 + w_3_3 + w_3_4 + w_3_5 + w_3_6 + w_3_7 + w_3_8
           + w_3_9 + w_3_10 <= 3
 c3_4:     w_4_1 + w_4_2 + w_4_3 + w_4_4 + w_4_5 + w_4_6 + w_4_7 + w_4_8
           + w_4_9 + w_4_10 <= 3
 c3_5:     w_5_1 + w_5_2 + w_5_3 + w_5_4 + w_5_5 + w_5_6 + w_5_7 + w_5_8
           + w_5_9 + w_5_10 <= 3
 c3_6:     w_6_1 + w_6_2 + w_6_3 + w_6_4 + w_6_5 + w_6_6 + w_6_7 + w_6_8
           + w_6_9 + w_6_10 <= 3
 c3_7:     w_7_1 + w_7_2 + w_7_3 + w_7_4 + w_7_5 + w_7_6 + w_7_7 + w_7_8
           + w_7_9 + w_7_10 <= 3
 c3_8:     w_8_1 + w_8_2 + w_8_3 + w_8_4 + w_8_5 + w_8_6 + w_8_7 + w_8_8
           + w_8_9 + w_8_10 <= 3
 c3_9:     w_9_1 + w_9_2 + w_9_3 + w_9_4 + w_9_5 + w_9_6 + w_9_7 + w_9_8
           + w_9_9 + w_9_10 <= 3
 c3_10:    w_10_1 + w_10_2 + w_10_3 + w_10_4 + w_10_5 + w_10_6 + w_10_7
           + w_10_8 + w_10_9 + w_10_10 <= 3
 c3_11:    w_11_1 + w_11_2 + w_11_3 + w_11_4 + w_11_5 + w_11_6 + w_11_7
           + w_11_8 + w_11_9 + w_11_10 <= 3
 c3_12:    w_12_1 + w_12_2 + w_12_3 + w_12_4 + w_12_5 + w_12_6 + w_12_7
           + w_12_8 + w_12_9 + w_12_10 <= 3
 c3_13:    w_13_1 + w_13_2 + w_13_3 + w_13_4 + w_13_5 + w_13_6 + w_13_7
           + w_13_8 + w_13_9 + w_13_10 <= 3
 c4_1_1:   r_super <= 1
 c4_1_2:   <= 1
 c4_1_3:   <= 1
 c4_1_4:   <= 1
 c4_1_5:   <= 1
 c4_1_6:   <= 1
 c4_1_7:   <= 1
 c4_1_8:   <= 1
 c4_1_9:   <= 1
 c4_1_10:  <= 1
 c4_2_1:   r_super <= 1
 c4_2_2:   <= 1
 c4_2_3:   <= 1
 c4_2_4:   <= 1
 c4_2_5:   <= 1
 c4_2_6:   <= 1
 c4_2_7:   <= 1
 c4_2_8:   <= 1
 c4_2_9:   <= 1
 c4_2_10:  <= 1
 c4_3_1:   r_super <= 1
 c4_3_2:   <= 1
 c4_3_3:   <= 1
 c4_3_4:   <= 1
 c4_3_5:   <= 1
 c4_3_6:   <= 1
 c4_3_7:   <= 1
 c4_3_8:   <= 1
 c4_3_9:   <= 1
 c4_3_10:  <= 1
 c4_4_1:   r_super <= 1
 c4_4_2:   <= 1
 c4_4_3:   <= 1
 c4_4_4:   <= 1
 c4_4_5:   <= 1
 c4_4_6:   <= 1
 c4_4_7:   <= 1
 c4_4_8:   <= 1
 c4_4_9:   <= 1
 c4_4_10:  <= 1
 c4_5_1:   r_super <= 1
 c4_5_2:   <= 1
 c4_5_3:   <= 1
 c4_5_4:   <= 1
 c4_5_5:   <= 1
 c4_5_6:   <= 1
 c4_5_7:   <= 1
 c4_5_8:   <= 1
 c4_5_9:   <= 1
 c4_5_10:  <= 1
 c4_6_1:   r_super <= 1
 c4_6_2:   <= 1
 c4_6_3:   <= 1
 c4_6_4:   <= 1
 c4_6_5:   <= 1
 c4_6_6:   <= 1
 c4_6_7:   <= 1
 c4_6_8:   <= 1
 c4_6_9:   <= 1
 c4_6_10:  <= 1
 c4_7_1:   r_super <= 1
 c4_7_2:   <= 1
 c4_7_3:   <= 1
 c4_7_4:   <= 1
 c4_7_5:   <= 1
 c4_7_6:   <= 1
 c4_7_7:   <= 1
 c4_7_8:   <= 1
 c4_7_9:   <= 1
 c4_7_10:  <= 1
 c4_8_1:   r_super <= 1
 c4_8_2:   <= 1
 c4_8_3:   <= 1
 c4_8_4:   <= 1
 c4_8_5:   <= 1
 c4_8_6:   <= 1
 c4_8_7:   <= 1
 c4_8_8:   <= 1
 c4_8_9:   <= 1
 c4_8_10:  <= 1
 c5_1:     - z + r_super <= 0
 c5_2:     - z <= 0
 c5_3:     - z <= 0
 c5_4:     - z <= 0
 c5_5:     - z <= 0
 c5_6:     - z <= 0
 c5_7:     - z <= 0
 c5_8:     - z <= 0
 c5_9:     - z <= 0
 c5_10:    - z <= 0
Bounds
 0 <= w_1_1 <= 1
 0 <= w_1_2 <= 1
 0 <= w_1_3 <= 1
 0 <= w_1_4 <= 1
 0 <= w_1_5 <= 1
 0 <= w_1_6 <= 1
 0 <= w_1_7 <= 1
 0 <= w_1_8 <= 1
 0 <= w_1_9 <= 1
 0 <= w_1_10 <= 1
 0 <= w_2_1 <= 1
 0 <= w_2_2 <= 1
 0 <= w_2_3 <= 1
 0 <= w_2_4 <= 1
 0 <= w_2_5 <= 1
 0 <= w_2_6 <= 1
 0 <= w_2_7 <= 1
 0 <= w_2_8 <= 1
 0 <= w_2_9 <= 1
 0 <= w_2_10 <= 1
 0 <= w_3_1 <= 1
 0 <= w_3_2 <= 1
 0 <= w_3_3 <= 1
 0 <= w_3_4 <= 1
 0 <= w_3_5 <= 1
 0 <= w_3_6 <= 1
 0 <= w_3_7 <= 1
 0 <= w_3_8 <= 1
 0 <= w_3_9 <= 1
 0 <= w_3_10 <= 1
 0 <= w_4_1 <= 1
 0 <= w_4_2 <= 1
 0 <= w_4_3 <= 1
 0 <= w_4_4 <= 1
 0 <= w_4_5 <= 1
 0 <= w_4_6 <= 1
 0 <= w_4_7 <= 1
 0 <= w_4_8 <= 1
 0 <= w_4_9 <= 1
 0 <= w_4_10 <= 1
 0 <= w_5_1 <= 1
 0 <= w_5_2 <= 1
 0 <= w_5_3 <= 1
 0 <= w_5_4 <= 1
 0 <= w_5_5 <= 1
 0 <= w_5_6 <= 1
 0 <= w_5_7 <= 1
 0 <= w_5_8 <= 1
 0 <= w_5_9 <= 1
 0 <= w_5_10 <= 1
 0 <= w_6_1 <= 1
 0 <= w_6_2 <= 1
 0 <= w_6_3 <= 1
 0 <= w_6_4 <= 1
 0 <= w_6_5 <= 1
 0 <= w_6_6 <= 1
 0 <= w_6_7 <= 1
 0 <= w_6_8 <= 1
 0 <= w_6_9 <= 1
 0 <= w_6_10 <= 1
 0 <= w_7_1 <= 1
 0 <= w_7_2 <= 1
 0 <= w_7_3 <= 1
 0 <= w_7_4 <= 1
 0 <= w_7_5 <= 1
 0 <= w_7_6 <= 1
 0 <= w_7_7 <= 1
 0 <= w_7_8 <= 1
 0 <= w_7_9 <= 1
 0 <= w_7_10 <= 1
 0 <= w_8_1 <= 1
 0 <= w_8_2 <= 1
 0 <= w_8_3 <= 1
 0 <= w_8_4 <= 1
 0 <= w_8_5 <= 1
 0 <= w_8_6 <= 1
 0 <= w_8_7 <= 1
 0 <= w_8_8 <= 1
 0 <= w_8_9 <= 1
 0 <= w_8_10 <= 1
 0 <= w_9_1 <= 1
 0 <= w_9_2 <= 1
 0 <= w_9_3 <= 1
 0 <= w_9_4 <= 1
 0 <= w_9_5 <= 1
 0 <= w_9_6 <= 1
 0 <= w_9_7 <= 1
 0 <= w_9_8 <= 1
 0 <= w_9_9 <= 1
 0 <= w_9_10 <= 1
 0 <= w_10_1 <= 1
 0 <= w_10_2 <= 1
 0 <= w_10_3 <= 1
 0 <= w_10_4 <= 1
 0 <= w_10_5 <= 1
 0 <= w_10_6 <= 1
 0 <= w_10_7 <= 1
 0 <= w_10_8 <= 1
 0 <= w_10_9 <= 1
 0 <= w_10_10 <= 1
 0 <= w_11_1 <= 1
 0 <= w_11_2 <= 1
 0 <= w_11_3 <= 1
 0 <= w_11_4 <= 1
 0 <= w_11_5 <= 1
 0 <= w_11_6 <= 1
 0 <= w_11_7 <= 1
 0 <= w_11_8 <= 1
 0 <= w_11_9 <= 1
 0 <= w_11_10 <= 1
 0 <= w_12_1 <= 1
 0 <= w_12_2 <= 1
 0 <= w_12_3 <= 1
 0 <= w_12_4 <= 1
 0 <= w_12_5 <= 1
 0 <= w_12_6 <= 1
 0 <= w_12_7 <= 1
 0 <= w_12_8 <= 1
 0 <= w_12_9 <= 1
 0 <= w_12_10 <= 1
 0 <= w_13_1 <= 1
 0 <= w_13_2 <= 1
 0 <= w_13_3 <= 1
 0 <= w_13_4 <= 1
 0 <= w_13_5 <= 1
 0 <= w_13_6 <= 1
 0 <= w_13_7 <= 1
 0 <= w_13_8 <= 1
 0 <= w_13_9 <= 1
 0 <= w_13_10 <= 1
 0 <= r_super <= 1
End
